n = 57;
rows = 159;
supports = [|
  {1},{1},
 |{1},7..52,
 |{2},{2},
 |{2},8..53,
 |{3},{3},
 |{3},9..54,
 |{4},{4},
 |{4},10..55,
 |{5},{5},
 |{5},11..56,
 |{6},{6},
 |{6},12..57,
 |{7},{7},
 |{7},{1},
 |{7},13..57,
 |{8},{8},
 |{8},1..2,
 |{8},14..57,
 |{9},{9},
 |{9},1..3,
 |{9},15..57,
 |{10},{10},
 |{10},1..4,
 |{10},16..57,
 |{11},{11},
 |{11},1..5,
 |{11},17..57,
 |{12},{12},
 |{12},1..6,
 |{12},18..57,
 |{13},{13},
 |{13},1..7,
 |{13},19..57,
 |{14},{14},
 |{14},1..8,
 |{14},20..57,
 |{15},{15},
 |{15},1..9,
 |{15},21..57,
 |{16},{16},
 |{16},1..10,
 |{16},22..57,
 |{17},{17},
 |{17},1..11,
 |{17},23..57,
 |{18},{18},
 |{18},1..12,
 |{18},24..57,
 |{19},{19},
 |{19},1..13,
 |{19},25..57,
 |{20},{20},
 |{20},1..14,
 |{20},26..57,
 |{21},{21},
 |{21},1..15,
 |{21},27..57,
 |{22},{22},
 |{22},1..16,
 |{22},28..57,
 |{23},{23},
 |{23},1..17,
 |{23},29..57,
 |{24},{24},
 |{24},1..18,
 |{24},30..57,
 |{25},{25},
 |{25},1..19,
 |{25},31..57,
 |{26},{26},
 |{26},1..20,
 |{26},32..57,
 |{27},{27},
 |{27},1..21,
 |{27},33..57,
 |{28},{28},
 |{28},1..22,
 |{28},34..57,
 |{29},{29},
 |{29},1..23,
 |{29},35..57,
 |{30},{30},
 |{30},1..24,
 |{30},36..57,
 |{31},{31},
 |{31},1..25,
 |{31},37..57,
 |{32},{32},
 |{32},1..26,
 |{32},38..57,
 |{33},{33},
 |{33},1..27,
 |{33},39..57,
 |{34},{34},
 |{34},1..28,
 |{34},40..57,
 |{35},{35},
 |{35},1..29,
 |{35},41..57,
 |{36},{36},
 |{36},1..30,
 |{36},42..57,
 |{37},{37},
 |{37},1..31,
 |{37},43..57,
 |{38},{38},
 |{38},1..32,
 |{38},44..57,
 |{39},{39},
 |{39},1..33,
 |{39},45..57,
 |{40},{40},
 |{40},1..34,
 |{40},46..57,
 |{41},{41},
 |{41},1..35,
 |{41},47..57,
 |{42},{42},
 |{42},1..36,
 |{42},48..57,
 |{43},{43},
 |{43},1..37,
 |{43},49..57,
 |{44},{44},
 |{44},1..38,
 |{44},50..57,
 |{45},{45},
 |{45},1..39,
 |{45},51..57,
 |{46},{46},
 |{46},1..40,
 |{46},52..57,
 |{47},{47},
 |{47},1..41,
 |{47},53..57,
 |{48},{48},
 |{48},1..42,
 |{48},54..57,
 |{49},{49},
 |{49},1..43,
 |{49},55..57,
 |{50},{50},
 |{50},1..44,
 |{50},56..57,
 |{51},{51},
 |{51},1..45,
 |{51},{57},
 |{52},{52},
 |{52},1..46,
 |{53},{53},
 |{53},2..47,
 |{54},{54},
 |{54},3..48,
 |{55},{55},
 |{55},4..49,
 |{56},{56},
 |{56},5..50,
 |{57},{57},
 |{57},6..51 |];

t = 127;

indexes = [|
    0,18,
  | 1,43,
  | 1,49,
  | 2,15,
  | 2,23,
  | 2,33,
  | 3,11,
  | 3,18,
  | 3,28,
  | 3,47,
  | 3,50,
  | 3,51,
  | 3,52,
  | 3,56,
  | 4,5,
  | 4,6,
  | 4,7,
  | 4,26,
  | 4,36,
  | 5,6,
  | 5,7,
  | 5,26,
  | 5,30,
  | 5,32,
  | 6,7,
  | 6,26,
  | 6,30,
  | 6,32,
  | 7,9,
  | 7,14,
  | 7,24,
  | 7,26,
  | 7,31,
  | 7,36,
  | 7,37,
  | 8,13,
  | 8,16,
  | 8,19,
  | 8,25,
  | 8,29,
  | 9,36,
  | 9,37,
  | 10,40,
  | 10,44,
  | 11,18,
  | 11,30,
  | 11,56,
  | 12,22,
  | 13,16,
  | 13,17,
  | 13,19,
  | 13,25,
  | 13,40,
  | 14,24,
  | 14,31,
  | 15,23,
  | 15,55,
  | 16,19,
  | 16,25,
  | 16,29,
  | 16,41,
  | 16,42,
  | 16,48,
  | 16,53,
  | 16,54,
  | 17,25,
  | 17,40,
  | 18,30,
  | 18,56,
  | 19,25,
  | 19,29,
  | 20,23,
  | 20,34,
  | 20,35,
  | 20,38,
  | 20,45,
  | 21,28,
  | 21,34,
  | 21,44,
  | 21,45,
  | 21,50,
  | 21,52,
  | 22,27,
  | 22,50,
  | 22,52,
  | 23,33,
  | 23,34,
  | 23,35,
  | 23,38,
  | 23,45,
  | 23,46,
  | 23,55,
  | 25,40,
  | 26,36,
  | 27,50,
  | 27,52,
  | 28,34,
  | 28,44,
  | 28,45,
  | 28,47,
  | 28,50,
  | 28,52,
  | 29,42,
  | 30,32,
  | 30,51,
  | 30,56,
  | 31,37,
  | 32,50,
  | 32,52,
  | 33,46,
  | 34,38,
  | 34,45,
  | 35,38,
  | 35,46,
  | 38,45,
  | 39,40,
  | 41,48,
  | 42,54,
  | 47,56,
  | 48,53,
  | 49,50,
  | 49,52,
  | 50,52,
  | 50,56,
  | 51,56,
  | 52,56,
  | 53,54 |];

